(declare-const a Real)
(declare-const b Real)
(declare-const c Real)
(assert (= (* a b c) 1))
(assert (> a 0))
(assert (> b 0))
(assert (> c 0))
(assert (not (<= (+ (* -14371543040 (pow b 4)) (* -10999322624 (pow a 4)) (* -43486543872 (pow a (/ 4 3)) (pow b (/ 8 3))) (* 639332352 (pow a 2) (pow b 2)) (* 16241303552 b (pow a 3)) (* 51976773632 a (pow b 3))) 0)))
(check-sat)
(get-model)
(exit)